40
1 0 3
2 0 9
2 1 3
3 0 3
3 1 6
3 2 6
4 0 2
4 1 1
4 2 10
4 3 6
5 0 8
5 1 8
5 2 6
5 3 7
5 4 11
6 0 11
6 1 1
6 2 9
6 3 11
6 4 1
6 5 8
7 0 11
7 1 7
7 2 7
7 3 9
7 4 4
7 5 10
7 6 8
8 0 8
8 1 6
8 2 1
8 3 4
8 4 11
8 5 11
8 6 1
8 7 10
9 0 11
9 1 8
9 2 5
9 3 8
9 4 10
9 5 6
9 6 9
9 7 9
9 8 10
10 0 8
10 1 3
10 2 11
10 3 7
10 4 6
10 5 7
10 6 10
10 7 1
10 8 2
10 9 1
11 0 8
11 1 7
11 2 4
11 3 10
11 4 9
11 5 5
11 6 2
11 7 4
11 8 3
11 9 2
11 10 3
12 0 1
12 1 1
12 2 10
12 3 9
12 4 7
12 5 9
12 6 6
12 7 5
12 8 6
12 9 3
12 10 3
12 11 8
13 0 3
13 1 5
13 2 2
13 3 11
13 4 9
13 5 3
13 6 10
13 7 8
13 8 9
13 9 6
13 10 5
13 11 3
13 12 11
14 0 10
14 1 6
14 2 3
14 3 11
14 4 1
14 5 7
14 6 2
14 7 1
14 8 11
14 9 5
14 10 6
14 11 9
14 12 9
14 13 2
15 0 11
15 1 7
15 2 3
15 3 5
15 4 9
15 5 11
15 6 4
15 7 5
15 8 10
15 9 6
15 10 2
15 11 2
15 12 7
15 13 10
15 14 2
16 0 1
16 1 10
16 2 10
16 3 6
16 4 1
16 5 8
16 6 6
16 7 4
16 8 6
16 9 11
16 10 10
16 11 3
16 12 1
16 13 10
16 14 9
16 15 11
17 0 10
17 1 11
17 2 9
17 3 3
17 4 10
17 5 4
17 6 3
17 7 4
17 8 10
17 9 6
17 10 1
17 11 6
17 12 6
17 13 4
17 14 6
17 15 4
17 16 3
18 0 1
18 1 5
18 2 1
18 3 1
18 4 2
18 5 5
18 6 7
18 7 6
18 8 5
18 9 7
18 10 7
18 11 5
18 12 8
18 13 3
18 14 4
18 15 2
18 16 4
18 17 1
19 0 2
19 1 8
19 2 5
19 3 9
19 4 10
19 5 9
19 6 7
19 7 8
19 8 5
19 9 9
19 10 5
19 11 4
19 12 2
19 13 3
19 14 6
19 15 10
19 16 6
19 17 11
19 18 1
20 0 2
20 1 11
20 2 6
20 3 7
20 4 4
20 5 4
20 6 11
20 7 6
20 8 9
20 9 7
20 10 3
20 11 3
20 12 8
20 13 9
20 14 6
20 15 8
20 16 3
20 17 7
20 18 7
20 19 9
21 0 4
21 1 2
21 2 4
21 3 6
21 4 3
21 5 6
21 6 3
21 7 4
21 8 7
21 9 11
21 10 3
21 11 2
21 12 3
21 13 5
21 14 1
21 15 4
21 16 3
21 17 2
21 18 5
21 19 7
21 20 1
22 0 8
22 1 7
22 2 8
22 3 7
22 4 2
22 5 4
22 6 9
22 7 5
22 8 5
22 9 10
22 10 6
22 11 3
22 12 6
22 13 5
22 14 7
22 15 5
22 16 3
22 17 3
22 18 8
22 19 9
22 20 4
22 21 2
23 0 10
23 1 4
23 2 10
23 3 7
23 4 9
23 5 6
23 6 9
23 7 9
23 8 7
23 9 3
23 10 9
23 11 5
23 12 11
23 13 2
23 14 8
23 15 10
23 16 1
23 17 6
23 18 4
23 19 7
23 20 5
23 21 8
23 22 9
24 0 1
24 1 8
24 2 4
24 3 1
24 4 9
24 5 5
24 6 6
24 7 2
24 8 6
24 9 5
24 10 7
24 11 8
24 12 5
24 13 7
24 14 8
24 15 6
24 16 5
24 17 11
24 18 7
24 19 2
24 20 3
24 21 6
24 22 11
24 23 7
25 0 3
25 1 4
25 2 3
25 3 2
25 4 3
25 5 3
25 6 6
25 7 1
25 8 5
25 9 9
25 10 11
25 11 2
25 12 3
25 13 10
25 14 6
25 15 10
25 16 11
25 17 1
25 18 9
25 19 4
25 20 11
25 21 1
25 22 8
25 23 2
25 24 5
26 0 1
26 1 3
26 2 11
26 3 2
26 4 4
26 5 3
26 6 7
26 7 1
26 8 4
26 9 10
26 10 2
26 11 1
26 12 1
26 13 9
26 14 2
26 15 8
26 16 4
26 17 11
26 18 7
26 19 1
26 20 3
26 21 9
26 22 10
26 23 3
26 24 1
26 25 4
27 0 2
27 1 11
27 2 8
27 3 2
27 4 2
27 5 7
27 6 4
27 7 1
27 8 7
27 9 6
27 10 10
27 11 6
27 12 4
27 13 4
27 14 8
27 15 6
27 16 9
27 17 11
27 18 8
27 19 8
27 20 2
27 21 8
27 22 9
27 23 10
27 24 6
27 25 6
27 26 10
28 0 5
28 1 2
28 2 2
28 3 2
28 4 6
28 5 7
28 6 6
28 7 5
28 8 5
28 9 10
28 10 9
28 11 3
28 12 9
28 13 9
28 14 8
28 15 9
28 16 7
28 17 5
28 18 10
28 19 3
28 20 2
28 21 11
28 22 1
28 23 6
28 24 10
28 25 3
28 26 7
28 27 5
29 0 2
29 1 3
29 2 5
29 3 8
29 4 11
29 5 8
29 6 9
29 7 4
29 8 8
29 9 6
29 10 5
29 11 11
29 12 10
29 13 10
29 14 10
29 15 10
29 16 3
29 17 10
29 18 8
29 19 2
29 20 10
29 21 1
29 22 6
29 23 10
29 24 1
29 25 5
29 26 5
29 27 8
29 28 3
30 0 1
30 1 2
30 2 2
30 3 6
30 4 2
30 5 11
30 6 7
30 7 7
30 8 1
30 9 8
30 10 4
30 11 4
30 12 5
30 13 10
30 14 4
30 15 8
30 16 7
30 17 10
30 18 6
30 19 4
30 20 6
30 21 6
30 22 6
30 23 3
30 24 2
30 25 10
30 26 2
30 27 6
30 28 7
30 29 6
31 0 8
31 1 9
31 2 6
31 3 1
31 4 7
31 5 9
31 6 7
31 7 1
31 8 4
31 9 11
31 10 7
31 11 2
31 12 6
31 13 4
31 14 11
31 15 5
31 16 6
31 17 8
31 18 2
31 19 6
31 20 5
31 21 7
31 22 7
31 23 7
31 24 5
31 25 4
31 26 8
31 27 10
31 28 2
31 29 6
31 30 8
32 0 4
32 1 7
32 2 8
32 3 6
32 4 1
32 5 6
32 6 6
32 7 1
32 8 1
32 9 5
32 10 9
32 11 6
32 12 1
32 13 3
32 14 2
32 15 3
32 16 3
32 17 6
32 18 9
32 19 10
32 20 8
32 21 5
32 22 11
32 23 7
32 24 5
32 25 2
32 26 9
32 27 1
32 28 10
32 29 7
32 30 5
32 31 7
33 0 5
33 1 5
33 2 8
33 3 5
33 4 10
33 5 8
33 6 8
33 7 2
33 8 7
33 9 2
33 10 9
33 11 9
33 12 3
33 13 9
33 14 8
33 15 7
33 16 10
33 17 6
33 18 6
33 19 10
33 20 3
33 21 6
33 22 2
33 23 4
33 24 2
33 25 11
33 26 5
33 27 6
33 28 7
33 29 1
33 30 5
33 31 9
33 32 1
34 0 3
34 1 4
34 2 1
34 3 7
34 4 3
34 5 2
34 6 2
34 7 11
34 8 9
34 9 7
34 10 10
34 11 9
34 12 11
34 13 10
34 14 3
34 15 4
34 16 11
34 17 1
34 18 2
34 19 11
34 20 8
34 21 6
34 22 8
34 23 5
34 24 7
34 25 1
34 26 2
34 27 7
34 28 6
34 29 6
34 30 8
34 31 6
34 32 11
34 33 8
35 0 11
35 1 10
35 2 11
35 3 7
35 4 7
35 5 1
35 6 4
35 7 6
35 8 3
35 9 10
35 10 7
35 11 5
35 12 11
35 13 10
35 14 9
35 15 9
35 16 6
35 17 5
35 18 4
35 19 7
35 20 3
35 21 9
35 22 1
35 23 2
35 24 7
35 25 1
35 26 7
35 27 10
35 28 11
35 29 2
35 30 3
35 31 10
35 32 2
35 33 9
35 34 10
36 0 9
36 1 4
36 2 10
36 3 4
36 4 2
36 5 1
36 6 2
36 7 4
36 8 3
36 9 4
36 10 8
36 11 5
36 12 7
36 13 1
36 14 6
36 15 3
36 16 1
36 17 11
36 18 8
36 19 7
36 20 6
36 21 3
36 22 2
36 23 9
36 24 8
36 25 5
36 26 5
36 27 6
36 28 1
36 29 1
36 30 2
36 31 1
36 32 10
36 33 6
36 34 3
36 35 5
37 0 7
37 1 9
37 2 8
37 3 2
37 4 8
37 5 6
37 6 7
37 7 2
37 8 10
37 9 1
37 10 7
37 11 9
37 12 1
37 13 7
37 14 10
37 15 7
37 16 11
37 17 4
37 18 5
37 19 10
37 20 8
37 21 5
37 22 6
37 23 7
37 24 9
37 25 10
37 26 11
37 27 6
37 28 4
37 29 10
37 30 3
37 31 1
37 32 2
37 33 1
37 34 5
37 35 6
37 36 4
38 0 3
38 1 6
38 2 4
38 3 4
38 4 2
38 5 3
38 6 1
38 7 10
38 8 8
38 9 11
38 10 1
38 11 10
38 12 6
38 13 4
38 14 3
38 15 1
38 16 6
38 17 11
38 18 4
38 19 11
38 20 2
38 21 2
38 22 4
38 23 2
38 24 10
38 25 2
38 26 11
38 27 8
38 28 3
38 29 1
38 30 1
38 31 4
38 32 2
38 33 5
38 34 2
38 35 1
38 36 10
38 37 11
39 0 4
39 1 8
39 2 2
39 3 6
39 4 11
39 5 9
39 6 4
39 7 2
39 8 3
39 9 7
39 10 4
39 11 9
39 12 1
39 13 11
39 14 11
39 15 8
39 16 6
39 17 11
39 18 10
39 19 3
39 20 1
39 21 4
39 22 8
39 23 5
39 24 4
39 25 9
39 26 1
39 27 7
39 28 2
39 29 10
39 30 2
39 31 10
39 32 6
39 33 4
39 34 9
39 35 2
39 36 5
39 37 6
39 38 11
